************************************************************************
file with basedata            : mm27_.bas
initial value random generator: 2071451586
************************************************************************
projects                      :  1
jobs (incl. supersource/sink ):  12
horizon                       :  88
RESOURCES
  - renewable                 :  2   R
  - nonrenewable              :  2   N
  - doubly constrained        :  0   D
************************************************************************
PROJECT INFORMATION:
pronr.  #jobs rel.date duedate tardcost  MPM-Time
    1     10      0       15        0       15
************************************************************************
PRECEDENCE RELATIONS:
jobnr.    #modes  #successors   successors
   0        1          3           1   2   3
   1        3          1           4
   2        3          3           5   6   7
   3        3          2           8  10
   4        3          3           6   9  10
   5        3          1           9
   6        3          1           8
   7        3          1           9
   8        3          1          11
   9        3          1          11
  10        3          1          11
  11        1          0        
************************************************************************
REQUESTS/DURATIONS:
jobnr. mode duration  R 1  R 2  R 3  R 4  E(W 1)
------------------------------------------------------------------------
  0      1     0       0    0    0    0     0
  1      1     3       0    7    6    0    39
  2      1     2       0    6    0    2    16
  3      1     1       0    7    0    1     9
  4      1     3       0    4    5    0    27
  5      1     1       4    0    0    8    12
  6      1     6       0    8    0    7    90
  7      1     2       0    9    0    2    22
  8      1     3       0    5    0    7    36
  9      1     4       4    0    7    0    44
 10      1     2      10    0    8    0    36
 11      1     0       0    0    0    0     0
************************************************************************
RESOURCEAVAILABILITIES:
  R 1
   115
************************************************************************
RESOURCE LIMITS:
jobnr.  l(R 1)  u(R 1)
------------------------------------------------------------------------
  0        0       0
  1        7      13
  2        4       8
  3        5       9
  4        5       9
  5        6      12
  6        8      15
  7        6      11
  8        7      12
  9        6      11
 10        9      18
 11        0       0
************************************************************************
SCENARIOS:
------------------------------------------------------------------------
RESOURCE k = 1
s = 1: (0, 26, 15, 6, 30, 9, 80, 29, 28, 30, 52, 0)
s = 2: (0, 31, 12, 14, 18, 14, 97, 28, 21, 28, 36, 0)
s = 3: (0, 51, 14, 15, 16, 8, 121, 16, 35, 58, 30, 0)
s = 4: (0, 25, 18, 6, 24, 15, 123, 27, 44, 50, 47, 0)
s = 5: (0, 34, 11, 11, 24, 18, 84, 27, 30, 48, 43, 0)
s = 6: (0, 30, 15, 8, 27, 12, 76, 25, 28, 32, 54, 0)
s = 7: (0, 53, 11, 12, 28, 12, 149, 32, 25, 63, 46, 0)
s = 8: (0, 27, 20, 8, 25, 11, 83, 17, 23, 46, 21, 0)
s = 9: (0, 34, 14, 13, 17, 19, 85, 32, 26, 39, 23, 0)
s = 10: (0, 38, 20, 6, 26, 10, 77, 15, 32, 41, 35, 0)
s = 11: (0, 28, 17, 9, 23, 14, 107, 22, 43, 76, 26, 0)
s = 12: (0, 32, 16, 6, 31, 11, 81, 32, 24, 49, 35, 0)
s = 13: (0, 39, 21, 8, 20, 15, 88, 23, 39, 47, 47, 0)
s = 14: (0, 61, 13, 10, 39, 13, 121, 18, 28, 34, 26, 0)
s = 15: (0, 36, 16, 12, 33, 12, 67, 28, 58, 47, 23, 0)
s = 16: (0, 27, 14, 9, 32, 10, 87, 23, 39, 63, 61, 0)
s = 17: (0, 33, 12, 8, 23, 18, 50, 18, 47, 53, 22, 0)
s = 18: (0, 30, 21, 8, 24, 15, 174, 18, 33, 32, 26, 0)
s = 19: (0, 56, 15, 10, 31, 9, 65, 34, 32, 69, 22, 0)
s = 20: (0, 44, 21, 10, 19, 10, 91, 21, 27, 32, 41, 0)
s = 21: (0, 56, 19, 9, 43, 15, 62, 19, 38, 55, 51, 0)
s = 22: (0, 65, 19, 11, 35, 18, 149, 22, 40, 49, 46, 0)
s = 23: (0, 38, 16, 8, 27, 12, 112, 20, 24, 35, 34, 0)
s = 24: (0, 44, 10, 10, 16, 13, 108, 22, 23, 33, 41, 0)
s = 25: (0, 56, 13, 10, 39, 9, 127, 24, 38, 32, 41, 0)
s = 26: (0, 31, 12, 10, 32, 21, 117, 13, 31, 46, 37, 0)
s = 27: (0, 33, 15, 11, 23, 10, 78, 16, 44, 43, 28, 0)
s = 28: (0, 32, 19, 10, 50, 16, 172, 31, 22, 37, 41, 0)
s = 29: (0, 26, 9, 8, 37, 8, 60, 19, 26, 28, 34, 0)
s = 30: (0, 25, 22, 10, 37, 14, 90, 26, 21, 38, 35, 0)
s = 31: (0, 47, 22, 11, 15, 17, 56, 21, 34, 48, 46, 0)
s = 32: (0, 27, 18, 7, 20, 12, 91, 18, 41, 44, 30, 0)
s = 33: (0, 27, 21, 7, 19, 10, 79, 20, 24, 39, 31, 0)
s = 34: (0, 62, 14, 11, 45, 11, 63, 31, 28, 31, 28, 0)
s = 35: (0, 44, 15, 6, 27, 20, 118, 30, 27, 46, 24, 0)
s = 36: (0, 33, 16, 14, 20, 11, 79, 17, 32, 37, 38, 0)
s = 37: (0, 23, 10, 9, 25, 12, 111, 19, 38, 34, 45, 0)
s = 38: (0, 46, 22, 9, 21, 16, 94, 15, 31, 51, 40, 0)
s = 39: (0, 37, 21, 10, 20, 12, 102, 26, 29, 47, 39, 0)
s = 40: (0, 28, 13, 10, 23, 17, 98, 30, 53, 29, 54, 0)
s = 41: (0, 45, 18, 6, 15, 8, 70, 19, 37, 24, 23, 0)
s = 42: (0, 42, 19, 9, 22, 9, 122, 20, 32, 64, 37, 0)
s = 43: (0, 35, 19, 14, 18, 12, 71, 14, 27, 35, 37, 0)
s = 44: (0, 40, 16, 18, 38, 15, 112, 27, 34, 51, 43, 0)
s = 45: (0, 57, 12, 8, 25, 17, 123, 29, 22, 42, 35, 0)
s = 46: (0, 46, 13, 10, 15, 16, 58, 32, 47, 58, 47, 0)
s = 47: (0, 46, 19, 8, 25, 13, 78, 22, 41, 31, 40, 0)
s = 48: (0, 35, 19, 11, 37, 8, 91, 29, 30, 31, 43, 0)
s = 49: (0, 34, 19, 8, 27, 14, 63, 42, 33, 48, 29, 0)
s = 50: (0, 36, 28, 14, 19, 9, 146, 20, 32, 40, 27, 0)
s = 51: (0, 26, 15, 12, 20, 13, 64, 32, 33, 72, 34, 0)
s = 52: (0, 23, 11, 15, 25, 9, 120, 19, 39, 72, 26, 0)
s = 53: (0, 53, 13, 9, 43, 20, 77, 21, 34, 35, 41, 0)
s = 54: (0, 55, 23, 9, 39, 15, 82, 21, 32, 35, 36, 0)
s = 55: (0, 50, 20, 9, 28, 10, 70, 34, 24, 51, 41, 0)
s = 56: (0, 55, 24, 9, 29, 11, 82, 18, 35, 34, 54, 0)
s = 57: (0, 23, 16, 11, 20, 8, 143, 37, 22, 39, 30, 0)
s = 58: (0, 34, 13, 13, 16, 18, 60, 22, 34, 36, 33, 0)
s = 59: (0, 47, 11, 9, 19, 11, 79, 16, 35, 26, 47, 0)
s = 60: (0, 34, 13, 15, 38, 18, 88, 30, 33, 63, 33, 0)
s = 61: (0, 28, 19, 11, 33, 13, 87, 16, 30, 42, 30, 0)
s = 62: (0, 33, 13, 8, 19, 8, 115, 17, 37, 84, 22, 0)
s = 63: (0, 46, 22, 7, 32, 12, 112, 27, 41, 30, 45, 0)
s = 64: (0, 46, 15, 5, 25, 10, 82, 18, 28, 39, 54, 0)
s = 65: (0, 28, 17, 13, 28, 17, 69, 13, 51, 62, 36, 0)
s = 66: (0, 33, 11, 6, 27, 11, 82, 16, 22, 38, 59, 0)
s = 67: (0, 33, 20, 12, 23, 17, 100, 16, 34, 45, 23, 0)
s = 68: (0, 44, 11, 10, 40, 12, 65, 23, 41, 33, 23, 0)
s = 69: (0, 34, 22, 9, 35, 13, 64, 33, 41, 41, 45, 0)
s = 70: (0, 36, 17, 9, 30, 13, 70, 16, 41, 24, 46, 0)
s = 71: (0, 47, 12, 7, 19, 7, 94, 38, 32, 30, 40, 0)
s = 72: (0, 42, 21, 10, 17, 13, 127, 17, 55, 60, 39, 0)
s = 73: (0, 27, 11, 7, 18, 10, 109, 19, 45, 49, 27, 0)
s = 74: (0, 41, 13, 9, 30, 17, 104, 33, 43, 41, 25, 0)
s = 75: (0, 48, 9, 10, 18, 9, 112, 21, 40, 39, 25, 0)
s = 76: (0, 32, 20, 8, 19, 10, 79, 17, 50, 28, 31, 0)
s = 77: (0, 41, 25, 11, 19, 9, 145, 29, 43, 43, 32, 0)
s = 78: (0, 43, 10, 6, 31, 10, 75, 33, 47, 46, 36, 0)
s = 79: (0, 43, 13, 9, 31, 9, 97, 30, 22, 36, 56, 0)
s = 80: (0, 39, 15, 10, 20, 14, 106, 30, 32, 40, 54, 0)
s = 81: (0, 37, 9, 7, 27, 10, 49, 13, 37, 43, 43, 0)
s = 82: (0, 32, 14, 13, 37, 18, 104, 21, 20, 40, 54, 0)
s = 83: (0, 26, 19, 6, 48, 10, 50, 26, 41, 41, 38, 0)
s = 84: (0, 29, 11, 11, 42, 12, 55, 20, 41, 63, 34, 0)
s = 85: (0, 56, 21, 11, 15, 9, 91, 20, 29, 52, 40, 0)
s = 86: (0, 42, 20, 11, 36, 13, 136, 20, 36, 50, 28, 0)
s = 87: (0, 40, 11, 7, 23, 11, 52, 31, 59, 37, 51, 0)
s = 88: (0, 22, 15, 15, 25, 14, 106, 24, 46, 48, 49, 0)
s = 89: (0, 47, 21, 7, 46, 12, 86, 32, 20, 26, 41, 0)
s = 90: (0, 21, 12, 7, 26, 16, 90, 19, 65, 29, 51, 0)
s = 91: (0, 22, 13, 9, 20, 12, 110, 29, 43, 49, 39, 0)
s = 92: (0, 55, 16, 8, 22, 13, 66, 27, 23, 59, 36, 0)
s = 93: (0, 29, 15, 6, 31, 14, 77, 18, 47, 45, 27, 0)
s = 94: (0, 50, 12, 7, 24, 9, 78, 25, 29, 43, 44, 0)
s = 95: (0, 58, 20, 11, 25, 8, 71, 13, 36, 33, 27, 0)
s = 96: (0, 42, 12, 7, 41, 15, 82, 23, 43, 39, 24, 0)
s = 97: (0, 32, 17, 12, 17, 11, 142, 15, 48, 41, 33, 0)
s = 98: (0, 59, 17, 9, 34, 10, 126, 30, 53, 46, 23, 0)
s = 99: (0, 32, 23, 16, 23, 10, 123, 15, 26, 47, 45, 0)
s = 100: (0, 34, 15, 8, 25, 18, 93, 25, 26, 39, 45, 0)
s = 101: (0, 40, 22, 10, 25, 13, 78, 23, 24, 38, 25, 0)
s = 102: (0, 32, 13, 6, 26, 14, 110, 23, 43, 31, 55, 0)
s = 103: (0, 42, 12, 10, 19, 9, 106, 26, 32, 63, 35, 0)
s = 104: (0, 47, 12, 7, 30, 15, 110, 19, 40, 33, 26, 0)
s = 105: (0, 35, 17, 10, 28, 18, 94, 13, 28, 30, 42, 0)
s = 106: (0, 39, 11, 11, 40, 16, 107, 19, 31, 26, 33, 0)
s = 107: (0, 52, 24, 10, 21, 17, 72, 33, 52, 58, 43, 0)
s = 108: (0, 29, 21, 12, 28, 9, 82, 20, 43, 50, 28, 0)
s = 109: (0, 26, 12, 9, 39, 20, 91, 26, 27, 44, 20, 0)
s = 110: (0, 37, 12, 7, 30, 12, 65, 23, 30, 40, 23, 0)
s = 111: (0, 42, 13, 11, 33, 17, 54, 14, 23, 30, 41, 0)
s = 112: (0, 35, 21, 6, 22, 14, 87, 18, 37, 40, 37, 0)
s = 113: (0, 38, 16, 13, 23, 9, 103, 18, 35, 32, 46, 0)
s = 114: (0, 27, 19, 11, 21, 17, 140, 22, 42, 36, 23, 0)
s = 115: (0, 36, 14, 7, 22, 15, 85, 18, 27, 41, 36, 0)
s = 116: (0, 55, 20, 6, 17, 8, 91, 18, 30, 36, 43, 0)
s = 117: (0, 27, 19, 6, 29, 20, 80, 20, 24, 49, 37, 0)
s = 118: (0, 39, 10, 7, 22, 15, 76, 16, 29, 27, 24, 0)
s = 119: (0, 31, 9, 7, 17, 12, 53, 13, 23, 51, 33, 0)
s = 120: (0, 26, 15, 14, 24, 10, 97, 13, 35, 34, 35, 0)
s = 121: (0, 48, 17, 12, 21, 8, 101, 24, 36, 65, 41, 0)
s = 122: (0, 35, 14, 8, 26, 11, 132, 23, 37, 45, 35, 0)
s = 123: (0, 67, 13, 14, 23, 9, 80, 13, 35, 47, 33, 0)
s = 124: (0, 60, 14, 9, 37, 12, 105, 15, 38, 42, 26, 0)
s = 125: (0, 32, 15, 10, 23, 11, 130, 20, 27, 32, 26, 0)
s = 126: (0, 37, 18, 11, 25, 10, 91, 23, 36, 60, 28, 0)
s = 127: (0, 25, 24, 7, 34, 9, 76, 20, 32, 52, 43, 0)
s = 128: (0, 47, 18, 10, 21, 8, 74, 21, 32, 46, 53, 0)
s = 129: (0, 28, 15, 6, 37, 19, 128, 30, 41, 54, 30, 0)
s = 130: (0, 55, 21, 8, 20, 13, 135, 25, 47, 37, 26, 0)
s = 131: (0, 28, 10, 7, 38, 16, 127, 24, 39, 41, 38, 0)
s = 132: (0, 67, 10, 10, 28, 7, 83, 29, 53, 49, 26, 0)
s = 133: (0, 56, 13, 14, 29, 9, 88, 28, 26, 38, 40, 0)
s = 134: (0, 43, 14, 6, 17, 9, 131, 21, 33, 49, 63, 0)
s = 135: (0, 33, 14, 13, 17, 10, 90, 24, 36, 34, 45, 0)
s = 136: (0, 32, 13, 11, 45, 8, 109, 20, 36, 52, 35, 0)
s = 137: (0, 33, 17, 10, 37, 11, 53, 25, 48, 48, 29, 0)
s = 138: (0, 51, 20, 6, 37, 12, 101, 18, 27, 43, 21, 0)
s = 139: (0, 23, 21, 12, 25, 11, 131, 35, 43, 29, 24, 0)
s = 140: (0, 45, 27, 11, 16, 8, 95, 21, 32, 49, 58, 0)
s = 141: (0, 31, 17, 7, 26, 8, 55, 18, 25, 58, 44, 0)
s = 142: (0, 37, 12, 8, 29, 13, 94, 24, 34, 46, 35, 0)
s = 143: (0, 37, 17, 13, 28, 9, 53, 21, 35, 41, 35, 0)
s = 144: (0, 41, 21, 11, 16, 18, 92, 14, 32, 41, 32, 0)
s = 145: (0, 44, 22, 12, 19, 13, 73, 27, 32, 64, 36, 0)
s = 146: (0, 61, 13, 15, 29, 20, 87, 20, 30, 66, 35, 0)
s = 147: (0, 56, 19, 11, 22, 20, 85, 19, 54, 25, 31, 0)
s = 148: (0, 42, 13, 11, 26, 17, 61, 20, 32, 43, 37, 0)
s = 149: (0, 55, 19, 8, 20, 11, 60, 19, 57, 37, 25, 0)
s = 150: (0, 44, 15, 13, 37, 8, 64, 21, 25, 48, 34, 0)
s = 151: (0, 35, 11, 8, 33, 13, 94, 23, 34, 62, 48, 0)
s = 152: (0, 55, 19, 8, 24, 12, 82, 30, 49, 62, 29, 0)
s = 153: (0, 33, 11, 12, 20, 12, 77, 14, 61, 55, 38, 0)
s = 154: (0, 47, 25, 9, 30, 15, 147, 15, 35, 26, 46, 0)
s = 155: (0, 28, 13, 14, 32, 17, 97, 28, 37, 48, 31, 0)
s = 156: (0, 56, 13, 14, 16, 13, 85, 25, 36, 39, 42, 0)
s = 157: (0, 56, 20, 13, 15, 13, 51, 21, 22, 47, 57, 0)
s = 158: (0, 31, 12, 11, 44, 12, 113, 18, 34, 69, 28, 0)
s = 159: (0, 45, 12, 7, 17, 7, 57, 14, 52, 27, 31, 0)
s = 160: (0, 63, 11, 9, 45, 18, 68, 21, 60, 49, 28, 0)
s = 161: (0, 48, 17, 12, 42, 14, 67, 25, 34, 33, 26, 0)
s = 162: (0, 41, 15, 9, 22, 9, 111, 21, 25, 33, 29, 0)
s = 163: (0, 49, 13, 7, 22, 9, 75, 17, 27, 44, 37, 0)
s = 164: (0, 49, 24, 15, 40, 9, 55, 26, 44, 43, 35, 0)
s = 165: (0, 33, 19, 9, 33, 15, 76, 24, 36, 48, 29, 0)
s = 166: (0, 44, 19, 9, 21, 15, 75, 31, 51, 31, 38, 0)
s = 167: (0, 50, 15, 6, 28, 8, 76, 13, 34, 68, 27, 0)
s = 168: (0, 28, 16, 9, 47, 16, 76, 16, 23, 38, 41, 0)
s = 169: (0, 43, 12, 11, 23, 12, 117, 14, 21, 50, 31, 0)
s = 170: (0, 46, 23, 9, 37, 12, 118, 18, 33, 36, 37, 0)
s = 171: (0, 66, 15, 10, 27, 11, 105, 21, 41, 73, 38, 0)
s = 172: (0, 29, 14, 12, 21, 11, 52, 18, 33, 45, 28, 0)
s = 173: (0, 33, 15, 8, 30, 15, 78, 19, 60, 64, 26, 0)
s = 174: (0, 30, 21, 13, 33, 12, 66, 20, 23, 58, 24, 0)
s = 175: (0, 33, 11, 11, 15, 8, 67, 22, 39, 38, 29, 0)
s = 176: (0, 37, 17, 12, 17, 13, 117, 20, 24, 45, 49, 0)
s = 177: (0, 45, 16, 9, 31, 14, 76, 12, 36, 52, 34, 0)
s = 178: (0, 40, 13, 12, 32, 13, 90, 25, 23, 60, 55, 0)
s = 179: (0, 60, 14, 7, 28, 7, 66, 29, 40, 30, 35, 0)
s = 180: (0, 32, 9, 10, 26, 11, 137, 34, 33, 75, 44, 0)
s = 181: (0, 48, 16, 7, 25, 12, 59, 26, 51, 60, 37, 0)
s = 182: (0, 24, 14, 6, 28, 14, 99, 31, 43, 28, 52, 0)
s = 183: (0, 29, 17, 16, 21, 17, 154, 27, 35, 33, 45, 0)
s = 184: (0, 29, 11, 8, 30, 11, 63, 21, 41, 45, 22, 0)
s = 185: (0, 41, 20, 15, 20, 11, 76, 26, 43, 40, 23, 0)
s = 186: (0, 40, 13, 13, 31, 11, 80, 13, 39, 64, 26, 0)
s = 187: (0, 42, 18, 14, 38, 8, 122, 18, 38, 44, 46, 0)
s = 188: (0, 25, 24, 11, 17, 9, 67, 32, 35, 74, 42, 0)
s = 189: (0, 30, 17, 8, 23, 14, 92, 25, 37, 57, 47, 0)
s = 190: (0, 43, 23, 11, 22, 15, 179, 17, 24, 41, 33, 0)
s = 191: (0, 23, 22, 7, 31, 12, 66, 26, 26, 75, 37, 0)
s = 192: (0, 38, 11, 6, 32, 10, 155, 26, 49, 32, 52, 0)
s = 193: (0, 40, 12, 11, 40, 12, 112, 27, 47, 44, 33, 0)
s = 194: (0, 39, 19, 15, 23, 12, 68, 24, 39, 54, 24, 0)
s = 195: (0, 51, 21, 7, 23, 7, 80, 28, 53, 55, 43, 0)
s = 196: (0, 30, 12, 9, 32, 15, 139, 20, 23, 33, 33, 0)
s = 197: (0, 31, 20, 10, 22, 8, 73, 21, 43, 41, 41, 0)
s = 198: (0, 44, 16, 9, 20, 13, 90, 30, 27, 48, 37, 0)
s = 199: (0, 54, 11, 14, 27, 16, 99, 25, 25, 57, 39, 0)
s = 200: (0, 38, 12, 8, 25, 12, 79, 21, 44, 25, 47, 0)
************************************************************************
ES/LS-VALUES:
jobnr.   ES(i)    LS(i)
------------------------------------------------------------------------
  0        0        0
  1        0       58
  2        0       66
  3        0       80
  4        5       64
  5        3       78
  6       10       70
  7        3       76
  8       21       82
  9       10       80
 10       10       84
 11       26       88
************************************************************************
BIG-M-VALUES:
M1 = 23, M2 = 179
************************************************************************
